p cnf 19 26
-16 -6 -14 -10 0
-16 -7 -14 -3 0
-3 -12 -11 -15 0
-7 -13 -2 -17 0
-8 -16 -14 -4 0
-14 18 -17 0
-7 -3 -18 0
-3 -10 -18 0
-8 -3 -18 0
-15 19 -12 -2 0
-19 -11 0
-7 -19 0
-19 -10 0
-19 -9 0
-6 20 -18 0
-20 -11 0
-7 -20 0
-20 -10 0
-8 -20 0
-20 -9 0
-4 21 -18 0
-7 -21 0
-21 -10 0
-8 -21 0
-21 -9 0
-21 -11 0
